10	5
0	3	9	6	1
1	3	10	3	8
2	1	11
3	2	7	4
4	1	11
5	1	2
6	1	11
7	1	11
8	1	11
9	1	11
10	1	11
11	0
0	0	0	0	0	0	0
1	4	0	2	1	1	2
2	5	0	4	5	1	1
3	2	0	3	0	0	0
4	10	0	5	0	0	2
5	1	0	0	0	0	4
6	4	0	0	5	1	0
7	4	0	0	4	3	2
8	4	5	5	2	3	0
9	4	4	2	0	0	0
10	1	0	0	0	4	3
11	0	0	0	0	0	0
7	9	9	6	6
